decision_x1=[0,2];
decision_x2=[0,2];
decision_x3=[0,2];
decision_x4=[0,2];
decision_x5=[0,2];
decision_x6=[0,2];
decision_x7=[0,2];
decision_x8=[0,2];
decision_x9=[0,2];
decision_x10=[0,2];
decision_x11=[0,2];
decision_x12=[0,2];
decision_x13=[0,2];
decision_x14=[0,2];
decision_x15=[0,2];
random_y1=[0,2];
random_y2=[0,2];
random_y3=[0,2];
constraint_x2_x1=[
0,1,4.5|
0,2,5.8|
1,0,5.2|
1,2,3.9|
2,0,7.4|
2,1,1.1|
];
constraint_x3_x2=[
0,1,5|
0,2,6.4|
1,0,3.1|
1,2,6|
2,0,9.3|
2,1,1.7|
];
constraint_x4_x2=[
0,1,1.4|
0,2,9.7|
1,0,9.3|
1,2,8.5|
2,0,2.1|
2,1,8.8|
];
constraint_x4_x3=[
0,1,9.9|
0,2,0.8|
1,0,9.9|
1,2,1.8|
2,0,7.6|
2,1,5.7|
];
constraint_x5_x1=[
0,1,3.7|
0,2,8.5|
1,0,1.8|
1,2,1.1|
2,0,6.9|
2,1,0.051|
];
constraint_x5_x2=[
0,1,0.6|
0,2,7.8|
1,0,3.4|
1,2,7.3|
2,0,5.6|
2,1,3.7|
];
constraint_x5_x3=[
0,1,8.4|
0,2,1.7|
1,0,9.6|
1,2,0.52|
2,0,9.5|
2,1,0.8|
];
constraint_x5_x4=[
0,1,9.3|
0,2,2.5|
1,0,9.7|
1,2,5.8|
2,0,8.1|
2,1,2.2|
];
constraint_x6_x1=[
0,1,5.9|
0,2,0.53|
1,0,3.3|
1,2,2|
2,0,5.6|
2,1,6.6|
];
constraint_x7_x1=[
0,1,7.1|
0,2,0.56|
1,0,7.9|
1,2,2.7|
2,0,4.1|
2,1,8.8|
];
constraint_x7_x3=[
0,1,6.5|
0,2,1.6|
1,0,6|
1,2,5.8|
2,0,3.2|
2,1,7.4|
];
constraint_x7_x6=[
0,1,4.1|
0,2,0.76|
1,0,7.7|
1,2,6|
2,0,0.39|
2,1,9.4|
];
constraint_x9_x1=[
0,1,0.61|
0,2,4|
1,0,6.9|
1,2,9.8|
2,0,6|
2,1,3.4|
];
constraint_x9_x2=[
0,1,2.6|
0,2,2.6|
1,0,2.9|
1,2,8.8|
2,0,8.9|
2,1,2.5|
];
constraint_x9_x5=[
0,1,8.9|
0,2,4.1|
1,0,9.5|
1,2,2|
2,0,8.3|
2,1,3.7|
];
constraint_x9_x7=[
0,1,0.37|
0,2,9.5|
1,0,5.3|
1,2,6.3|
2,0,1.2|
2,1,5|
];
constraint_x9_x8=[
0,1,0.93|
0,2,6.7|
1,0,7.2|
1,2,7.1|
2,0,5.5|
2,1,7.3|
];
constraint_x10_x2=[
0,1,4.2|
0,2,0.14|
1,0,2.1|
1,2,7.8|
2,0,1.1|
2,1,1.2|
];
constraint_x10_x5=[
0,1,0.47|
0,2,8.7|
1,0,5.3|
1,2,4.7|
2,0,8|
2,1,6.6|
];
constraint_x10_x6=[
0,1,1.3|
0,2,7.9|
1,0,8.5|
1,2,2|
2,0,3.1|
2,1,1.5|
];
constraint_x10_x9=[
0,1,10|
0,2,3|
1,0,4.2|
1,2,0.00062|
2,0,9.5|
2,1,4.4|
];
constraint_x11_x4=[
0,1,2.9|
0,2,2.1|
1,0,4.9|
1,2,4.5|
2,0,8.4|
2,1,0.58|
];
constraint_x11_x5=[
0,1,6.4|
0,2,8.6|
1,0,8.9|
1,2,1.3|
2,0,3.4|
2,1,1.1|
];
constraint_x11_x7=[
0,1,7.2|
0,2,1.9|
1,0,8.2|
1,2,9.5|
2,0,6.4|
2,1,6.2|
];
constraint_x12_x1=[
0,1,1.3|
0,2,1.9|
1,0,5.3|
1,2,6.4|
2,0,4.1|
2,1,0.92|
];
constraint_x12_x2=[
0,1,1.2|
0,2,5.1|
1,0,4|
1,2,0.52|
2,0,5.4|
2,1,6.2|
];
constraint_x12_x3=[
0,1,9.9|
0,2,0.48|
1,0,9.6|
1,2,8.8|
2,0,7.6|
2,1,3.8|
];
constraint_x12_x4=[
0,1,9|
0,2,4.2|
1,0,1.3|
1,2,5.8|
2,0,4|
2,1,3.3|
];
constraint_x12_x5=[
0,1,8.6|
0,2,4.4|
1,0,9.7|
1,2,3.5|
2,0,8.9|
2,1,7.2|
];
constraint_x12_x6=[
0,1,4.3|
0,2,4.9|
1,0,8.5|
1,2,0.71|
2,0,8.3|
2,1,0.84|
];
constraint_x12_x7=[
0,1,7.6|
0,2,9.1|
1,0,0.71|
1,2,3.8|
2,0,2.7|
2,1,9.8|
];
constraint_x12_x8=[
0,1,6.7|
0,2,3.2|
1,0,7.8|
1,2,5.7|
2,0,7.6|
2,1,6.2|
];
constraint_x12_x9=[
0,1,1.4|
0,2,9.9|
1,0,3.1|
1,2,7|
2,0,6.7|
2,1,7.4|
];
constraint_x12_x10=[
0,1,7.5|
0,2,9.9|
1,0,7.8|
1,2,3.8|
2,0,6.5|
2,1,8.2|
];
constraint_x13_x5=[
0,1,7.1|
0,2,1.9|
1,0,3.6|
1,2,2.5|
2,0,8.5|
2,1,6|
];
constraint_x13_x6=[
0,1,4.2|
0,2,9.2|
1,0,4.8|
1,2,6.6|
2,0,6.2|
2,1,3.3|
];
constraint_x13_x7=[
0,1,7.1|
0,2,9.1|
1,0,10|
1,2,8.1|
2,0,0.78|
2,1,1.7|
];
constraint_x13_x8=[
0,1,5.9|
0,2,2.7|
1,0,5|
1,2,9.3|
2,0,5.8|
2,1,4.9|
];
constraint_x13_x9=[
0,1,1.6|
0,2,2.8|
1,0,5.7|
1,2,3.8|
2,0,0.56|
2,1,2.6|
];
constraint_x13_x10=[
0,1,1.1|
0,2,9.2|
1,0,4.4|
1,2,1.6|
2,0,6.8|
2,1,6.4|
];
constraint_x13_x11=[
0,1,3.4|
0,2,0.66|
1,0,6.9|
1,2,3.6|
2,0,3.9|
2,1,7.1|
];
constraint_x13_x12=[
0,1,4.5|
0,2,9.1|
1,0,0.46|
1,2,9.4|
2,0,5.5|
2,1,9.2|
];
constraint_x14_x2=[
0,1,5.4|
0,2,2|
1,0,2|
1,2,7.5|
2,0,7.1|
2,1,7.2|
];
constraint_x14_x3=[
0,1,9.2|
0,2,4|
1,0,6.3|
1,2,6.5|
2,0,5.4|
2,1,7.6|
];
constraint_x14_x5=[
0,1,0.73|
0,2,0.66|
1,0,2.8|
1,2,5.6|
2,0,7.1|
2,1,1.6|
];
constraint_x14_x8=[
0,1,1.5|
0,2,1.5|
1,0,6.3|
1,2,7.6|
2,0,6.4|
2,1,4.7|
];
constraint_x14_x10=[
0,1,2.8|
0,2,9|
1,0,3.8|
1,2,3.9|
2,0,0.097|
2,1,3.7|
];
constraint_x15_x1=[
0,1,1.9|
0,2,3|
1,0,2.3|
1,2,8.6|
2,0,7.3|
2,1,2.1|
];
constraint_x15_x4=[
0,1,9.7|
0,2,1.4|
1,0,2.8|
1,2,0.3|
2,0,2.9|
2,1,6.7|
];
constraint_x15_x5=[
0,1,0.099|
0,2,4|
1,0,9.7|
1,2,2.8|
2,0,5.8|
2,1,4.1|
];
constraint_x15_x9=[
0,1,7.8|
0,2,7.9|
1,0,0.57|
1,2,7|
2,0,8.8|
2,1,3.6|
];
constraint_x15_x11=[
0,1,5.1|
0,2,7.1|
1,0,6.6|
1,2,6.3|
2,0,4.3|
2,1,7.4|
];
constraint_x15_x13=[
0,1,8.7|
0,2,2.3|
1,0,7.8|
1,2,7.3|
2,0,6.3|
2,1,1.6|
];
constraint_x1_y1=[
0,0,4.7|
0,1,8.7|
0,2,1.6|
1,0,3.6|
1,1,9.2|
1,2,9.2|
2,0,0.66|
2,1,6.1|
2,2,8.7|
];
constraint_x2_y2=[
0,0,6.8|
0,1,6.1|
0,2,2.7|
1,0,0.83|
1,1,1.9|
1,2,8.8|
2,0,6.2|
2,1,8.5|
2,2,6.6|
];
constraint_x3_y3=[
0,0,7.4|
0,1,5.3|
0,2,4.2|
1,0,9.5|
1,1,6.3|
1,2,3.9|
2,0,7.8|
2,1,8.8|
2,2,5.3|
];
initial_distribution_y1=[0.3,0.49,0.21];
initial_distribution_y2=[0.54,0.45,0.014];
initial_distribution_y3=[0.37,0.31,0.33];
transition_y1=[
0.5,0.43,0.073|
0.46,0.056,0.49|
0.46,0.38,0.16|
];
transition_y2=[
0.32,0.63,0.048|
0.39,0.39,0.23|
0.63,0.27,0.1|
];
transition_y3=[
0.45,0.13,0.42|
0.2,0.45,0.36|
0.33,0.52,0.15|
];
